SIO2
SYSTEM   = SiO2 Surface

#NELECT   = 56

#ISTART   = 0
#ICHARG   = 2
LREAL    = Auto
#LORBIT   = 11
PREC     = Normal
POTIM    = 0.1
EDIFF    = 1E-4
EDIFFG   = 1E-3
#ADDGRID  = TRUE
#AMIN     = 0.01
LWAVE    = FALSE
LCHARG   = FALSE
LVTOT    = FALSE
ISYM     = 2
#SYMPREC  = 1E-5

ENCUT    = 400.000
SIGMA    = 0.01
ISMEAR   = 0

ISPIN    = 1

ALGO     = NORMAL 
#IALGO    = 38 

NSW      = 1000
IBRION   = 2
ISIF     = 2
IVDW=2

#NWRITE = 3 Verbosity
