Automatic Mesh
0
Gamma
3 3 1
0.00 0.00 0.00
