H O Si                                  
   1.00000000000000     
    10.7200000000000006    0.0000000000000000    0.0000000000000000
     0.0000000000000000   11.0399999999999991    0.0000000000000000
     0.0000000000000000    0.0000000000000000   29.8599999999999994
   Cl  H  O  Si  Ti
   4  8  58  27  1 
Selective dynamics
Cartesian
$coordinates
